benchmarks_CP/INST_36x36/30/inst36x36_30_93.dzn
S=6;
start=[|
2,	-1,	-1,	34,	22,	-1,	-1,	-1,	-1,	-1,	-1,	4,	18,	9,	-1,	-1,	-1,	-1,	-1,	-1,	15,	3,	-1,	-1,	10,	-1,	26,	-1,	8,	-1,	36,	23,	-1,	21,	-1,	-1|
-1,	18,	11,	-1,	-1,	-1,	-1,	-1,	-1,	-1,	-1,	8,	-1,	-1,	26,	22,	2,	-1,	-1,	34,	-1,	-1,	-1,	-1,	15,	-1,	30,	-1,	-1,	23,	-1,	-1,	-1,	-1,	29,	-1|
-1,	20,	-1,	-1,	-1,	-1,	-1,	-1,	28,	-1,	-1,	-1,	-1,	-1,	-1,	-1,	-1,	36,	32,	-1,	-1,	-1,	-1,	12,	13,	-1,	18,	17,	-1,	-1,	-1,	-1,	-1,	-1,	1,	-1|
-1,	17,	4,	-1,	13,	6,	-1,	-1,	-1,	-1,	-1,	-1,	21,	-1,	25,	-1,	-1,	15,	23,	31,	-1,	-1,	-1,	-1,	-1,	-1,	-1,	-1,	-1,	1,	-1,	-1,	33,	-1,	-1,	28|
-1,	23,	-1,	-1,	-1,	28,	-1,	15,	-1,	-1,	-1,	22,	-1,	11,	1,	-1,	-1,	-1,	-1,	-1,	24,	-1,	-1,	-1,	-1,	3,	33,	-1,	-1,	-1,	2,	-1,	30,	-1,	26,	-1|
-1,	25,	12,	-1,	-1,	10,	18,	36,	31,	-1,	-1,	-1,	-1,	-1,	-1,	-1,	-1,	-1,	-1,	-1,	-1,	-1,	4,	-1,	-1,	-1,	28,	21,	11,	-1,	-1,	-1,	-1,	-1,	13,	8|
-1,	-1,	-1,	-1,	-1,	-1,	-1,	-1,	-1,	-1,	-1,	16,	-1,	-1,	-1,	-1,	-1,	8,	-1,	10,	-1,	-1,	-1,	-1,	-1,	-1,	-1,	-1,	-1,	-1,	-1,	35,	29,	-1,	-1,	32|
-1,	-1,	-1,	33,	-1,	8,	9,	-1,	-1,	-1,	-1,	-1,	-1,	-1,	-1,	-1,	-1,	20,	-1,	15,	-1,	-1,	-1,	21,	26,	-1,	-1,	-1,	-1,	-1,	-1,	-1,	-1,	-1,	5,	23|
-1,	-1,	-1,	35,	-1,	-1,	-1,	-1,	34,	-1,	-1,	-1,	12,	-1,	17,	-1,	-1,	10,	24,	-1,	-1,	-1,	-1,	23,	-1,	-1,	20,	29,	-1,	13,	7,	-1,	-1,	-1,	-1,	-1|
-1,	-1,	27,	-1,	21,	-1,	-1,	-1,	19,	23,	-1,	31,	-1,	-1,	-1,	-1,	6,	4,	-1,	17,	-1,	-1,	22,	-1,	-1,	-1,	-1,	-1,	-1,	-1,	-1,	9,	-1,	34,	-1,	-1|
5,	6,	-1,	19,	-1,	16,	-1,	-1,	-1,	-1,	-1,	-1,	-1,	3,	23,	-1,	-1,	30,	-1,	-1,	7,	-1,	-1,	-1,	8,	24,	-1,	-1,	-1,	9,	-1,	-1,	31,	-1,	-1,	-1|
-1,	31,	-1,	-1,	20,	-1,	-1,	-1,	-1,	-1,	13,	-1,	1,	28,	-1,	-1,	-1,	16,	-1,	-1,	-1,	-1,	-1,	-1,	-1,	-1,	-1,	-1,	6,	-1,	-1,	-1,	12,	-1,	-1,	-1|
26,	36,	-1,	-1,	18,	-1,	-1,	-1,	-1,	7,	-1,	-1,	31,	-1,	-1,	34,	-1,	12,	-1,	22,	-1,	-1,	-1,	-1,	-1,	1,	17,	35,	29,	24,	27,	-1,	-1,	-1,	3,	-1|
-1,	12,	-1,	-1,	23,	32,	-1,	-1,	-1,	-1,	4,	-1,	-1,	-1,	-1,	-1,	36,	-1,	-1,	-1,	-1,	-1,	-1,	-1,	-1,	-1,	27,	-1,	-1,	-1,	-1,	-1,	-1,	-1,	-1,	-1|
13,	5,	-1,	10,	-1,	-1,	-1,	-1,	-1,	-1,	-1,	-1,	6,	-1,	-1,	4,	-1,	2,	-1,	-1,	29,	15,	-1,	-1,	-1,	-1,	-1,	-1,	-1,	-1,	-1,	-1,	-1,	-1,	-1,	-1|
29,	-1,	35,	17,	16,	-1,	-1,	2,	32,	-1,	-1,	10,	-1,	15,	-1,	-1,	-1,	-1,	8,	36,	-1,	-1,	-1,	-1,	6,	-1,	-1,	-1,	-1,	-1,	-1,	-1,	5,	-1,	-1,	-1|
28,	-1,	-1,	-1,	9,	-1,	11,	27,	23,	34,	-1,	-1,	-1,	-1,	-1,	18,	-1,	-1,	-1,	-1,	-1,	-1,	-1,	33,	-1,	10,	21,	-1,	-1,	-1,	-1,	2,	-1,	-1,	8,	-1|
-1,	-1,	21,	-1,	7,	-1,	-1,	-1,	-1,	-1,	-1,	-1,	-1,	17,	-1,	-1,	-1,	-1,	-1,	9,	-1,	-1,	23,	-1,	-1,	32,	-1,	13,	-1,	36,	4,	25,	-1,	-1,	14,	15|
7,	-1,	30,	-1,	-1,	-1,	-1,	-1,	-1,	-1,	10,	14,	-1,	6,	-1,	-1,	-1,	27,	-1,	24,	-1,	-1,	-1,	-1,	-1,	15,	-1,	-1,	-1,	-1,	21,	-1,	-1,	31,	-1,	-1|
12,	-1,	-1,	1,	11,	20,	-1,	7,	-1,	-1,	16,	-1,	-1,	-1,	-1,	-1,	-1,	-1,	-1,	-1,	-1,	-1,	-1,	-1,	-1,	-1,	22,	33,	-1,	-1,	8,	-1,	3,	-1,	-1,	10|
-1,	-1,	10,	22,	-1,	-1,	-1,	-1,	-1,	-1,	-1,	20,	-1,	34,	-1,	-1,	-1,	-1,	-1,	13,	5,	-1,	12,	-1,	21,	-1,	-1,	28,	16,	-1,	-1,	-1,	-1,	-1,	35,	-1|
-1,	4,	-1,	3,	-1,	-1,	12,	11,	-1,	-1,	-1,	-1,	16,	21,	-1,	-1,	31,	-1,	30,	-1,	-1,	-1,	-1,	-1,	20,	-1,	-1,	-1,	-1,	18,	-1,	-1,	-1,	-1,	-1,	22|
-1,	-1,	-1,	-1,	-1,	-1,	-1,	-1,	15,	-1,	-1,	5,	-1,	-1,	-1,	-1,	-1,	-1,	29,	28,	-1,	-1,	-1,	-1,	-1,	-1,	34,	26,	-1,	4,	-1,	13,	23,	-1,	-1,	18|
9,	-1,	-1,	13,	-1,	-1,	-1,	-1,	-1,	-1,	-1,	-1,	-1,	33,	-1,	-1,	-1,	1,	-1,	-1,	-1,	-1,	-1,	-1,	7,	-1,	5,	-1,	36,	-1,	-1,	-1,	2,	4,	-1,	16|
-1,	-1,	28,	12,	-1,	-1,	31,	8,	-1,	21,	-1,	-1,	-1,	-1,	-1,	-1,	-1,	-1,	-1,	16,	-1,	27,	-1,	-1,	17,	33,	9,	-1,	-1,	-1,	-1,	-1,	-1,	26,	-1,	-1|
-1,	-1,	-1,	-1,	-1,	-1,	-1,	-1,	27,	12,	-1,	-1,	9,	4,	-1,	-1,	-1,	-1,	-1,	30,	32,	-1,	-1,	-1,	-1,	11,	8,	-1,	-1,	-1,	-1,	-1,	-1,	25,	-1,	-1|
-1,	14,	-1,	-1,	3,	-1,	-1,	-1,	-1,	-1,	-1,	1,	-1,	-1,	-1,	-1,	12,	-1,	34,	-1,	22,	4,	15,	10,	-1,	6,	32,	-1,	-1,	-1,	35,	-1,	-1,	-1,	-1,	-1|
-1,	-1,	-1,	-1,	30,	17,	2,	-1,	-1,	24,	-1,	7,	-1,	-1,	-1,	-1,	-1,	13,	-1,	-1,	-1,	1,	-1,	-1,	-1,	-1,	4,	20,	-1,	-1,	23,	-1,	-1,	-1,	-1,	36|
-1,	-1,	-1,	-1,	31,	-1,	6,	-1,	26,	-1,	23,	9,	30,	-1,	-1,	-1,	-1,	-1,	-1,	-1,	-1,	17,	-1,	-1,	-1,	-1,	2,	-1,	35,	-1,	33,	-1,	-1,	12,	-1,	-1|
-1,	-1,	-1,	-1,	-1,	-1,	16,	-1,	30,	-1,	-1,	15,	2,	32,	-1,	23,	-1,	-1,	33,	-1,	-1,	-1,	-1,	19,	-1,	-1,	-1,	-1,	12,	-1,	20,	-1,	-1,	10,	-1,	-1|
-1,	34,	-1,	4,	1,	5,	-1,	33,	-1,	10,	-1,	23,	-1,	30,	-1,	-1,	20,	26,	-1,	12,	11,	-1,	-1,	-1,	-1,	29,	36,	24,	19,	-1,	-1,	-1,	-1,	22,	-1,	13|
-1,	-1,	17,	16,	10,	26,	-1,	-1,	-1,	-1,	-1,	-1,	19,	-1,	-1,	-1,	-1,	-1,	-1,	-1,	21,	18,	-1,	-1,	-1,	34,	-1,	-1,	-1,	-1,	-1,	-1,	-1,	-1,	-1,	-1|
35,	-1,	7,	-1,	-1,	-1,	-1,	-1,	-1,	-1,	15,	30,	-1,	-1,	-1,	-1,	-1,	-1,	9,	-1,	-1,	10,	-1,	-1,	18,	-1,	14,	-1,	-1,	32,	-1,	-1,	26,	-1,	-1,	-1|
-1,	-1,	-1,	-1,	-1,	23,	-1,	-1,	-1,	35,	22,	-1,	-1,	-1,	-1,	12,	18,	-1,	-1,	-1,	-1,	-1,	-1,	20,	-1,	-1,	6,	-1,	30,	-1,	-1,	7,	-1,	-1,	33,	-1|
-1,	-1,	-1,	36,	25,	-1,	28,	-1,	-1,	-1,	20,	-1,	-1,	-1,	-1,	-1,	-1,	23,	-1,	1,	-1,	-1,	7,	-1,	33,	-1,	-1,	31,	15,	-1,	14,	-1,	-1,	-1,	-1,	-1|
-1,	-1,	-1,	-1,	-1,	-1,	-1,	-1,	-1,	-1,	36,	-1,	-1,	24,	2,	27,	-1,	17,	-1,	6,	-1,	23,	5,	-1,	-1,	7,	-1,	-1,	-1,	22,	19,	-1,	-1,	-1,	-1,	-1|];
